p cnf 98 2401
1 2 0
3 4 0
5 6 0
7 8 0
9 10 0
11 12 0
13 14 0
15 16 0
17 18 0
19 20 0
21 22 0
23 24 0
25 26 0
27 28 0
29 30 0
31 32 0
33 34 0
35 36 0
37 38 0
39 40 0
41 42 0
43 44 0
45 46 0
47 48 0
49 50 0
51 52 0
53 54 0
55 56 0
57 58 0
59 60 0
61 62 0
63 64 0
65 66 0
67 68 0
69 70 0
71 72 0
73 74 0
75 76 0
77 78 0
79 80 0
81 82 0
83 84 0
85 86 0
87 88 0
89 90 0
91 92 0
93 94 0
95 96 0
97 98 0
-1 -3 0
-1 -5 0
-1 -7 0
-1 -9 0
-1 -11 0
-1 -13 0
-1 -15 0
-1 -17 0
-1 -19 0
-1 -21 0
-1 -23 0
-1 -25 0
-1 -27 0
-1 -29 0
-1 -31 0
-1 -33 0
-1 -35 0
-1 -37 0
-1 -39 0
-1 -41 0
-1 -43 0
-1 -45 0
-1 -47 0
-1 -49 0
-1 -51 0
-1 -53 0
-1 -55 0
-1 -57 0
-1 -59 0
-1 -61 0
-1 -63 0
-1 -65 0
-1 -67 0
-1 -69 0
-1 -71 0
-1 -73 0
-1 -75 0
-1 -77 0
-1 -79 0
-1 -81 0
-1 -83 0
-1 -85 0
-1 -87 0
-1 -89 0
-1 -91 0
-1 -93 0
-1 -95 0
-1 -97 0
-3 -5 0
-3 -7 0
-3 -9 0
-3 -11 0
-3 -13 0
-3 -15 0
-3 -17 0
-3 -19 0
-3 -21 0
-3 -23 0
-3 -25 0
-3 -27 0
-3 -29 0
-3 -31 0
-3 -33 0
-3 -35 0
-3 -37 0
-3 -39 0
-3 -41 0
-3 -43 0
-3 -45 0
-3 -47 0
-3 -49 0
-3 -51 0
-3 -53 0
-3 -55 0
-3 -57 0
-3 -59 0
-3 -61 0
-3 -63 0
-3 -65 0
-3 -67 0
-3 -69 0
-3 -71 0
-3 -73 0
-3 -75 0
-3 -77 0
-3 -79 0
-3 -81 0
-3 -83 0
-3 -85 0
-3 -87 0
-3 -89 0
-3 -91 0
-3 -93 0
-3 -95 0
-3 -97 0
-5 -7 0
-5 -9 0
-5 -11 0
-5 -13 0
-5 -15 0
-5 -17 0
-5 -19 0
-5 -21 0
-5 -23 0
-5 -25 0
-5 -27 0
-5 -29 0
-5 -31 0
-5 -33 0
-5 -35 0
-5 -37 0
-5 -39 0
-5 -41 0
-5 -43 0
-5 -45 0
-5 -47 0
-5 -49 0
-5 -51 0
-5 -53 0
-5 -55 0
-5 -57 0
-5 -59 0
-5 -61 0
-5 -63 0
-5 -65 0
-5 -67 0
-5 -69 0
-5 -71 0
-5 -73 0
-5 -75 0
-5 -77 0
-5 -79 0
-5 -81 0
-5 -83 0
-5 -85 0
-5 -87 0
-5 -89 0
-5 -91 0
-5 -93 0
-5 -95 0
-5 -97 0
-7 -9 0
-7 -11 0
-7 -13 0
-7 -15 0
-7 -17 0
-7 -19 0
-7 -21 0
-7 -23 0
-7 -25 0
-7 -27 0
-7 -29 0
-7 -31 0
-7 -33 0
-7 -35 0
-7 -37 0
-7 -39 0
-7 -41 0
-7 -43 0
-7 -45 0
-7 -47 0
-7 -49 0
-7 -51 0
-7 -53 0
-7 -55 0
-7 -57 0
-7 -59 0
-7 -61 0
-7 -63 0
-7 -65 0
-7 -67 0
-7 -69 0
-7 -71 0
-7 -73 0
-7 -75 0
-7 -77 0
-7 -79 0
-7 -81 0
-7 -83 0
-7 -85 0
-7 -87 0
-7 -89 0
-7 -91 0
-7 -93 0
-7 -95 0
-7 -97 0
-9 -11 0
-9 -13 0
-9 -15 0
-9 -17 0
-9 -19 0
-9 -21 0
-9 -23 0
-9 -25 0
-9 -27 0
-9 -29 0
-9 -31 0
-9 -33 0
-9 -35 0
-9 -37 0
-9 -39 0
-9 -41 0
-9 -43 0
-9 -45 0
-9 -47 0
-9 -49 0
-9 -51 0
-9 -53 0
-9 -55 0
-9 -57 0
-9 -59 0
-9 -61 0
-9 -63 0
-9 -65 0
-9 -67 0
-9 -69 0
-9 -71 0
-9 -73 0
-9 -75 0
-9 -77 0
-9 -79 0
-9 -81 0
-9 -83 0
-9 -85 0
-9 -87 0
-9 -89 0
-9 -91 0
-9 -93 0
-9 -95 0
-9 -97 0
-11 -13 0
-11 -15 0
-11 -17 0
-11 -19 0
-11 -21 0
-11 -23 0
-11 -25 0
-11 -27 0
-11 -29 0
-11 -31 0
-11 -33 0
-11 -35 0
-11 -37 0
-11 -39 0
-11 -41 0
-11 -43 0
-11 -45 0
-11 -47 0
-11 -49 0
-11 -51 0
-11 -53 0
-11 -55 0
-11 -57 0
-11 -59 0
-11 -61 0
-11 -63 0
-11 -65 0
-11 -67 0
-11 -69 0
-11 -71 0
-11 -73 0
-11 -75 0
-11 -77 0
-11 -79 0
-11 -81 0
-11 -83 0
-11 -85 0
-11 -87 0
-11 -89 0
-11 -91 0
-11 -93 0
-11 -95 0
-11 -97 0
-13 -15 0
-13 -17 0
-13 -19 0
-13 -21 0
-13 -23 0
-13 -25 0
-13 -27 0
-13 -29 0
-13 -31 0
-13 -33 0
-13 -35 0
-13 -37 0
-13 -39 0
-13 -41 0
-13 -43 0
-13 -45 0
-13 -47 0
-13 -49 0
-13 -51 0
-13 -53 0
-13 -55 0
-13 -57 0
-13 -59 0
-13 -61 0
-13 -63 0
-13 -65 0
-13 -67 0
-13 -69 0
-13 -71 0
-13 -73 0
-13 -75 0
-13 -77 0
-13 -79 0
-13 -81 0
-13 -83 0
-13 -85 0
-13 -87 0
-13 -89 0
-13 -91 0
-13 -93 0
-13 -95 0
-13 -97 0
-15 -17 0
-15 -19 0
-15 -21 0
-15 -23 0
-15 -25 0
-15 -27 0
-15 -29 0
-15 -31 0
-15 -33 0
-15 -35 0
-15 -37 0
-15 -39 0
-15 -41 0
-15 -43 0
-15 -45 0
-15 -47 0
-15 -49 0
-15 -51 0
-15 -53 0
-15 -55 0
-15 -57 0
-15 -59 0
-15 -61 0
-15 -63 0
-15 -65 0
-15 -67 0
-15 -69 0
-15 -71 0
-15 -73 0
-15 -75 0
-15 -77 0
-15 -79 0
-15 -81 0
-15 -83 0
-15 -85 0
-15 -87 0
-15 -89 0
-15 -91 0
-15 -93 0
-15 -95 0
-15 -97 0
-17 -19 0
-17 -21 0
-17 -23 0
-17 -25 0
-17 -27 0
-17 -29 0
-17 -31 0
-17 -33 0
-17 -35 0
-17 -37 0
-17 -39 0
-17 -41 0
-17 -43 0
-17 -45 0
-17 -47 0
-17 -49 0
-17 -51 0
-17 -53 0
-17 -55 0
-17 -57 0
-17 -59 0
-17 -61 0
-17 -63 0
-17 -65 0
-17 -67 0
-17 -69 0
-17 -71 0
-17 -73 0
-17 -75 0
-17 -77 0
-17 -79 0
-17 -81 0
-17 -83 0
-17 -85 0
-17 -87 0
-17 -89 0
-17 -91 0
-17 -93 0
-17 -95 0
-17 -97 0
-19 -21 0
-19 -23 0
-19 -25 0
-19 -27 0
-19 -29 0
-19 -31 0
-19 -33 0
-19 -35 0
-19 -37 0
-19 -39 0
-19 -41 0
-19 -43 0
-19 -45 0
-19 -47 0
-19 -49 0
-19 -51 0
-19 -53 0
-19 -55 0
-19 -57 0
-19 -59 0
-19 -61 0
-19 -63 0
-19 -65 0
-19 -67 0
-19 -69 0
-19 -71 0
-19 -73 0
-19 -75 0
-19 -77 0
-19 -79 0
-19 -81 0
-19 -83 0
-19 -85 0
-19 -87 0
-19 -89 0
-19 -91 0
-19 -93 0
-19 -95 0
-19 -97 0
-21 -23 0
-21 -25 0
-21 -27 0
-21 -29 0
-21 -31 0
-21 -33 0
-21 -35 0
-21 -37 0
-21 -39 0
-21 -41 0
-21 -43 0
-21 -45 0
-21 -47 0
-21 -49 0
-21 -51 0
-21 -53 0
-21 -55 0
-21 -57 0
-21 -59 0
-21 -61 0
-21 -63 0
-21 -65 0
-21 -67 0
-21 -69 0
-21 -71 0
-21 -73 0
-21 -75 0
-21 -77 0
-21 -79 0
-21 -81 0
-21 -83 0
-21 -85 0
-21 -87 0
-21 -89 0
-21 -91 0
-21 -93 0
-21 -95 0
-21 -97 0
-23 -25 0
-23 -27 0
-23 -29 0
-23 -31 0
-23 -33 0
-23 -35 0
-23 -37 0
-23 -39 0
-23 -41 0
-23 -43 0
-23 -45 0
-23 -47 0
-23 -49 0
-23 -51 0
-23 -53 0
-23 -55 0
-23 -57 0
-23 -59 0
-23 -61 0
-23 -63 0
-23 -65 0
-23 -67 0
-23 -69 0
-23 -71 0
-23 -73 0
-23 -75 0
-23 -77 0
-23 -79 0
-23 -81 0
-23 -83 0
-23 -85 0
-23 -87 0
-23 -89 0
-23 -91 0
-23 -93 0
-23 -95 0
-23 -97 0
-25 -27 0
-25 -29 0
-25 -31 0
-25 -33 0
-25 -35 0
-25 -37 0
-25 -39 0
-25 -41 0
-25 -43 0
-25 -45 0
-25 -47 0
-25 -49 0
-25 -51 0
-25 -53 0
-25 -55 0
-25 -57 0
-25 -59 0
-25 -61 0
-25 -63 0
-25 -65 0
-25 -67 0
-25 -69 0
-25 -71 0
-25 -73 0
-25 -75 0
-25 -77 0
-25 -79 0
-25 -81 0
-25 -83 0
-25 -85 0
-25 -87 0
-25 -89 0
-25 -91 0
-25 -93 0
-25 -95 0
-25 -97 0
-27 -29 0
-27 -31 0
-27 -33 0
-27 -35 0
-27 -37 0
-27 -39 0
-27 -41 0
-27 -43 0
-27 -45 0
-27 -47 0
-27 -49 0
-27 -51 0
-27 -53 0
-27 -55 0
-27 -57 0
-27 -59 0
-27 -61 0
-27 -63 0
-27 -65 0
-27 -67 0
-27 -69 0
-27 -71 0
-27 -73 0
-27 -75 0
-27 -77 0
-27 -79 0
-27 -81 0
-27 -83 0
-27 -85 0
-27 -87 0
-27 -89 0
-27 -91 0
-27 -93 0
-27 -95 0
-27 -97 0
-29 -31 0
-29 -33 0
-29 -35 0
-29 -37 0
-29 -39 0
-29 -41 0
-29 -43 0
-29 -45 0
-29 -47 0
-29 -49 0
-29 -51 0
-29 -53 0
-29 -55 0
-29 -57 0
-29 -59 0
-29 -61 0
-29 -63 0
-29 -65 0
-29 -67 0
-29 -69 0
-29 -71 0
-29 -73 0
-29 -75 0
-29 -77 0
-29 -79 0
-29 -81 0
-29 -83 0
-29 -85 0
-29 -87 0
-29 -89 0
-29 -91 0
-29 -93 0
-29 -95 0
-29 -97 0
-31 -33 0
-31 -35 0
-31 -37 0
-31 -39 0
-31 -41 0
-31 -43 0
-31 -45 0
-31 -47 0
-31 -49 0
-31 -51 0
-31 -53 0
-31 -55 0
-31 -57 0
-31 -59 0
-31 -61 0
-31 -63 0
-31 -65 0
-31 -67 0
-31 -69 0
-31 -71 0
-31 -73 0
-31 -75 0
-31 -77 0
-31 -79 0
-31 -81 0
-31 -83 0
-31 -85 0
-31 -87 0
-31 -89 0
-31 -91 0
-31 -93 0
-31 -95 0
-31 -97 0
-33 -35 0
-33 -37 0
-33 -39 0
-33 -41 0
-33 -43 0
-33 -45 0
-33 -47 0
-33 -49 0
-33 -51 0
-33 -53 0
-33 -55 0
-33 -57 0
-33 -59 0
-33 -61 0
-33 -63 0
-33 -65 0
-33 -67 0
-33 -69 0
-33 -71 0
-33 -73 0
-33 -75 0
-33 -77 0
-33 -79 0
-33 -81 0
-33 -83 0
-33 -85 0
-33 -87 0
-33 -89 0
-33 -91 0
-33 -93 0
-33 -95 0
-33 -97 0
-35 -37 0
-35 -39 0
-35 -41 0
-35 -43 0
-35 -45 0
-35 -47 0
-35 -49 0
-35 -51 0
-35 -53 0
-35 -55 0
-35 -57 0
-35 -59 0
-35 -61 0
-35 -63 0
-35 -65 0
-35 -67 0
-35 -69 0
-35 -71 0
-35 -73 0
-35 -75 0
-35 -77 0
-35 -79 0
-35 -81 0
-35 -83 0
-35 -85 0
-35 -87 0
-35 -89 0
-35 -91 0
-35 -93 0
-35 -95 0
-35 -97 0
-37 -39 0
-37 -41 0
-37 -43 0
-37 -45 0
-37 -47 0
-37 -49 0
-37 -51 0
-37 -53 0
-37 -55 0
-37 -57 0
-37 -59 0
-37 -61 0
-37 -63 0
-37 -65 0
-37 -67 0
-37 -69 0
-37 -71 0
-37 -73 0
-37 -75 0
-37 -77 0
-37 -79 0
-37 -81 0
-37 -83 0
-37 -85 0
-37 -87 0
-37 -89 0
-37 -91 0
-37 -93 0
-37 -95 0
-37 -97 0
-39 -41 0
-39 -43 0
-39 -45 0
-39 -47 0
-39 -49 0
-39 -51 0
-39 -53 0
-39 -55 0
-39 -57 0
-39 -59 0
-39 -61 0
-39 -63 0
-39 -65 0
-39 -67 0
-39 -69 0
-39 -71 0
-39 -73 0
-39 -75 0
-39 -77 0
-39 -79 0
-39 -81 0
-39 -83 0
-39 -85 0
-39 -87 0
-39 -89 0
-39 -91 0
-39 -93 0
-39 -95 0
-39 -97 0
-41 -43 0
-41 -45 0
-41 -47 0
-41 -49 0
-41 -51 0
-41 -53 0
-41 -55 0
-41 -57 0
-41 -59 0
-41 -61 0
-41 -63 0
-41 -65 0
-41 -67 0
-41 -69 0
-41 -71 0
-41 -73 0
-41 -75 0
-41 -77 0
-41 -79 0
-41 -81 0
-41 -83 0
-41 -85 0
-41 -87 0
-41 -89 0
-41 -91 0
-41 -93 0
-41 -95 0
-41 -97 0
-43 -45 0
-43 -47 0
-43 -49 0
-43 -51 0
-43 -53 0
-43 -55 0
-43 -57 0
-43 -59 0
-43 -61 0
-43 -63 0
-43 -65 0
-43 -67 0
-43 -69 0
-43 -71 0
-43 -73 0
-43 -75 0
-43 -77 0
-43 -79 0
-43 -81 0
-43 -83 0
-43 -85 0
-43 -87 0
-43 -89 0
-43 -91 0
-43 -93 0
-43 -95 0
-43 -97 0
-45 -47 0
-45 -49 0
-45 -51 0
-45 -53 0
-45 -55 0
-45 -57 0
-45 -59 0
-45 -61 0
-45 -63 0
-45 -65 0
-45 -67 0
-45 -69 0
-45 -71 0
-45 -73 0
-45 -75 0
-45 -77 0
-45 -79 0
-45 -81 0
-45 -83 0
-45 -85 0
-45 -87 0
-45 -89 0
-45 -91 0
-45 -93 0
-45 -95 0
-45 -97 0
-47 -49 0
-47 -51 0
-47 -53 0
-47 -55 0
-47 -57 0
-47 -59 0
-47 -61 0
-47 -63 0
-47 -65 0
-47 -67 0
-47 -69 0
-47 -71 0
-47 -73 0
-47 -75 0
-47 -77 0
-47 -79 0
-47 -81 0
-47 -83 0
-47 -85 0
-47 -87 0
-47 -89 0
-47 -91 0
-47 -93 0
-47 -95 0
-47 -97 0
-49 -51 0
-49 -53 0
-49 -55 0
-49 -57 0
-49 -59 0
-49 -61 0
-49 -63 0
-49 -65 0
-49 -67 0
-49 -69 0
-49 -71 0
-49 -73 0
-49 -75 0
-49 -77 0
-49 -79 0
-49 -81 0
-49 -83 0
-49 -85 0
-49 -87 0
-49 -89 0
-49 -91 0
-49 -93 0
-49 -95 0
-49 -97 0
-51 -53 0
-51 -55 0
-51 -57 0
-51 -59 0
-51 -61 0
-51 -63 0
-51 -65 0
-51 -67 0
-51 -69 0
-51 -71 0
-51 -73 0
-51 -75 0
-51 -77 0
-51 -79 0
-51 -81 0
-51 -83 0
-51 -85 0
-51 -87 0
-51 -89 0
-51 -91 0
-51 -93 0
-51 -95 0
-51 -97 0
-53 -55 0
-53 -57 0
-53 -59 0
-53 -61 0
-53 -63 0
-53 -65 0
-53 -67 0
-53 -69 0
-53 -71 0
-53 -73 0
-53 -75 0
-53 -77 0
-53 -79 0
-53 -81 0
-53 -83 0
-53 -85 0
-53 -87 0
-53 -89 0
-53 -91 0
-53 -93 0
-53 -95 0
-53 -97 0
-55 -57 0
-55 -59 0
-55 -61 0
-55 -63 0
-55 -65 0
-55 -67 0
-55 -69 0
-55 -71 0
-55 -73 0
-55 -75 0
-55 -77 0
-55 -79 0
-55 -81 0
-55 -83 0
-55 -85 0
-55 -87 0
-55 -89 0
-55 -91 0
-55 -93 0
-55 -95 0
-55 -97 0
-57 -59 0
-57 -61 0
-57 -63 0
-57 -65 0
-57 -67 0
-57 -69 0
-57 -71 0
-57 -73 0
-57 -75 0
-57 -77 0
-57 -79 0
-57 -81 0
-57 -83 0
-57 -85 0
-57 -87 0
-57 -89 0
-57 -91 0
-57 -93 0
-57 -95 0
-57 -97 0
-59 -61 0
-59 -63 0
-59 -65 0
-59 -67 0
-59 -69 0
-59 -71 0
-59 -73 0
-59 -75 0
-59 -77 0
-59 -79 0
-59 -81 0
-59 -83 0
-59 -85 0
-59 -87 0
-59 -89 0
-59 -91 0
-59 -93 0
-59 -95 0
-59 -97 0
-61 -63 0
-61 -65 0
-61 -67 0
-61 -69 0
-61 -71 0
-61 -73 0
-61 -75 0
-61 -77 0
-61 -79 0
-61 -81 0
-61 -83 0
-61 -85 0
-61 -87 0
-61 -89 0
-61 -91 0
-61 -93 0
-61 -95 0
-61 -97 0
-63 -65 0
-63 -67 0
-63 -69 0
-63 -71 0
-63 -73 0
-63 -75 0
-63 -77 0
-63 -79 0
-63 -81 0
-63 -83 0
-63 -85 0
-63 -87 0
-63 -89 0
-63 -91 0
-63 -93 0
-63 -95 0
-63 -97 0
-65 -67 0
-65 -69 0
-65 -71 0
-65 -73 0
-65 -75 0
-65 -77 0
-65 -79 0
-65 -81 0
-65 -83 0
-65 -85 0
-65 -87 0
-65 -89 0
-65 -91 0
-65 -93 0
-65 -95 0
-65 -97 0
-67 -69 0
-67 -71 0
-67 -73 0
-67 -75 0
-67 -77 0
-67 -79 0
-67 -81 0
-67 -83 0
-67 -85 0
-67 -87 0
-67 -89 0
-67 -91 0
-67 -93 0
-67 -95 0
-67 -97 0
-69 -71 0
-69 -73 0
-69 -75 0
-69 -77 0
-69 -79 0
-69 -81 0
-69 -83 0
-69 -85 0
-69 -87 0
-69 -89 0
-69 -91 0
-69 -93 0
-69 -95 0
-69 -97 0
-71 -73 0
-71 -75 0
-71 -77 0
-71 -79 0
-71 -81 0
-71 -83 0
-71 -85 0
-71 -87 0
-71 -89 0
-71 -91 0
-71 -93 0
-71 -95 0
-71 -97 0
-73 -75 0
-73 -77 0
-73 -79 0
-73 -81 0
-73 -83 0
-73 -85 0
-73 -87 0
-73 -89 0
-73 -91 0
-73 -93 0
-73 -95 0
-73 -97 0
-75 -77 0
-75 -79 0
-75 -81 0
-75 -83 0
-75 -85 0
-75 -87 0
-75 -89 0
-75 -91 0
-75 -93 0
-75 -95 0
-75 -97 0
-77 -79 0
-77 -81 0
-77 -83 0
-77 -85 0
-77 -87 0
-77 -89 0
-77 -91 0
-77 -93 0
-77 -95 0
-77 -97 0
-79 -81 0
-79 -83 0
-79 -85 0
-79 -87 0
-79 -89 0
-79 -91 0
-79 -93 0
-79 -95 0
-79 -97 0
-81 -83 0
-81 -85 0
-81 -87 0
-81 -89 0
-81 -91 0
-81 -93 0
-81 -95 0
-81 -97 0
-83 -85 0
-83 -87 0
-83 -89 0
-83 -91 0
-83 -93 0
-83 -95 0
-83 -97 0
-85 -87 0
-85 -89 0
-85 -91 0
-85 -93 0
-85 -95 0
-85 -97 0
-87 -89 0
-87 -91 0
-87 -93 0
-87 -95 0
-87 -97 0
-89 -91 0
-89 -93 0
-89 -95 0
-89 -97 0
-91 -93 0
-91 -95 0
-91 -97 0
-93 -95 0
-93 -97 0
-95 -97 0
-2 -4 0
-2 -6 0
-2 -8 0
-2 -10 0
-2 -12 0
-2 -14 0
-2 -16 0
-2 -18 0
-2 -20 0
-2 -22 0
-2 -24 0
-2 -26 0
-2 -28 0
-2 -30 0
-2 -32 0
-2 -34 0
-2 -36 0
-2 -38 0
-2 -40 0
-2 -42 0
-2 -44 0
-2 -46 0
-2 -48 0
-2 -50 0
-2 -52 0
-2 -54 0
-2 -56 0
-2 -58 0
-2 -60 0
-2 -62 0
-2 -64 0
-2 -66 0
-2 -68 0
-2 -70 0
-2 -72 0
-2 -74 0
-2 -76 0
-2 -78 0
-2 -80 0
-2 -82 0
-2 -84 0
-2 -86 0
-2 -88 0
-2 -90 0
-2 -92 0
-2 -94 0
-2 -96 0
-2 -98 0
-4 -6 0
-4 -8 0
-4 -10 0
-4 -12 0
-4 -14 0
-4 -16 0
-4 -18 0
-4 -20 0
-4 -22 0
-4 -24 0
-4 -26 0
-4 -28 0
-4 -30 0
-4 -32 0
-4 -34 0
-4 -36 0
-4 -38 0
-4 -40 0
-4 -42 0
-4 -44 0
-4 -46 0
-4 -48 0
-4 -50 0
-4 -52 0
-4 -54 0
-4 -56 0
-4 -58 0
-4 -60 0
-4 -62 0
-4 -64 0
-4 -66 0
-4 -68 0
-4 -70 0
-4 -72 0
-4 -74 0
-4 -76 0
-4 -78 0
-4 -80 0
-4 -82 0
-4 -84 0
-4 -86 0
-4 -88 0
-4 -90 0
-4 -92 0
-4 -94 0
-4 -96 0
-4 -98 0
-6 -8 0
-6 -10 0
-6 -12 0
-6 -14 0
-6 -16 0
-6 -18 0
-6 -20 0
-6 -22 0
-6 -24 0
-6 -26 0
-6 -28 0
-6 -30 0
-6 -32 0
-6 -34 0
-6 -36 0
-6 -38 0
-6 -40 0
-6 -42 0
-6 -44 0
-6 -46 0
-6 -48 0
-6 -50 0
-6 -52 0
-6 -54 0
-6 -56 0
-6 -58 0
-6 -60 0
-6 -62 0
-6 -64 0
-6 -66 0
-6 -68 0
-6 -70 0
-6 -72 0
-6 -74 0
-6 -76 0
-6 -78 0
-6 -80 0
-6 -82 0
-6 -84 0
-6 -86 0
-6 -88 0
-6 -90 0
-6 -92 0
-6 -94 0
-6 -96 0
-6 -98 0
-8 -10 0
-8 -12 0
-8 -14 0
-8 -16 0
-8 -18 0
-8 -20 0
-8 -22 0
-8 -24 0
-8 -26 0
-8 -28 0
-8 -30 0
-8 -32 0
-8 -34 0
-8 -36 0
-8 -38 0
-8 -40 0
-8 -42 0
-8 -44 0
-8 -46 0
-8 -48 0
-8 -50 0
-8 -52 0
-8 -54 0
-8 -56 0
-8 -58 0
-8 -60 0
-8 -62 0
-8 -64 0
-8 -66 0
-8 -68 0
-8 -70 0
-8 -72 0
-8 -74 0
-8 -76 0
-8 -78 0
-8 -80 0
-8 -82 0
-8 -84 0
-8 -86 0
-8 -88 0
-8 -90 0
-8 -92 0
-8 -94 0
-8 -96 0
-8 -98 0
-10 -12 0
-10 -14 0
-10 -16 0
-10 -18 0
-10 -20 0
-10 -22 0
-10 -24 0
-10 -26 0
-10 -28 0
-10 -30 0
-10 -32 0
-10 -34 0
-10 -36 0
-10 -38 0
-10 -40 0
-10 -42 0
-10 -44 0
-10 -46 0
-10 -48 0
-10 -50 0
-10 -52 0
-10 -54 0
-10 -56 0
-10 -58 0
-10 -60 0
-10 -62 0
-10 -64 0
-10 -66 0
-10 -68 0
-10 -70 0
-10 -72 0
-10 -74 0
-10 -76 0
-10 -78 0
-10 -80 0
-10 -82 0
-10 -84 0
-10 -86 0
-10 -88 0
-10 -90 0
-10 -92 0
-10 -94 0
-10 -96 0
-10 -98 0
-12 -14 0
-12 -16 0
-12 -18 0
-12 -20 0
-12 -22 0
-12 -24 0
-12 -26 0
-12 -28 0
-12 -30 0
-12 -32 0
-12 -34 0
-12 -36 0
-12 -38 0
-12 -40 0
-12 -42 0
-12 -44 0
-12 -46 0
-12 -48 0
-12 -50 0
-12 -52 0
-12 -54 0
-12 -56 0
-12 -58 0
-12 -60 0
-12 -62 0
-12 -64 0
-12 -66 0
-12 -68 0
-12 -70 0
-12 -72 0
-12 -74 0
-12 -76 0
-12 -78 0
-12 -80 0
-12 -82 0
-12 -84 0
-12 -86 0
-12 -88 0
-12 -90 0
-12 -92 0
-12 -94 0
-12 -96 0
-12 -98 0
-14 -16 0
-14 -18 0
-14 -20 0
-14 -22 0
-14 -24 0
-14 -26 0
-14 -28 0
-14 -30 0
-14 -32 0
-14 -34 0
-14 -36 0
-14 -38 0
-14 -40 0
-14 -42 0
-14 -44 0
-14 -46 0
-14 -48 0
-14 -50 0
-14 -52 0
-14 -54 0
-14 -56 0
-14 -58 0
-14 -60 0
-14 -62 0
-14 -64 0
-14 -66 0
-14 -68 0
-14 -70 0
-14 -72 0
-14 -74 0
-14 -76 0
-14 -78 0
-14 -80 0
-14 -82 0
-14 -84 0
-14 -86 0
-14 -88 0
-14 -90 0
-14 -92 0
-14 -94 0
-14 -96 0
-14 -98 0
-16 -18 0
-16 -20 0
-16 -22 0
-16 -24 0
-16 -26 0
-16 -28 0
-16 -30 0
-16 -32 0
-16 -34 0
-16 -36 0
-16 -38 0
-16 -40 0
-16 -42 0
-16 -44 0
-16 -46 0
-16 -48 0
-16 -50 0
-16 -52 0
-16 -54 0
-16 -56 0
-16 -58 0
-16 -60 0
-16 -62 0
-16 -64 0
-16 -66 0
-16 -68 0
-16 -70 0
-16 -72 0
-16 -74 0
-16 -76 0
-16 -78 0
-16 -80 0
-16 -82 0
-16 -84 0
-16 -86 0
-16 -88 0
-16 -90 0
-16 -92 0
-16 -94 0
-16 -96 0
-16 -98 0
-18 -20 0
-18 -22 0
-18 -24 0
-18 -26 0
-18 -28 0
-18 -30 0
-18 -32 0
-18 -34 0
-18 -36 0
-18 -38 0
-18 -40 0
-18 -42 0
-18 -44 0
-18 -46 0
-18 -48 0
-18 -50 0
-18 -52 0
-18 -54 0
-18 -56 0
-18 -58 0
-18 -60 0
-18 -62 0
-18 -64 0
-18 -66 0
-18 -68 0
-18 -70 0
-18 -72 0
-18 -74 0
-18 -76 0
-18 -78 0
-18 -80 0
-18 -82 0
-18 -84 0
-18 -86 0
-18 -88 0
-18 -90 0
-18 -92 0
-18 -94 0
-18 -96 0
-18 -98 0
-20 -22 0
-20 -24 0
-20 -26 0
-20 -28 0
-20 -30 0
-20 -32 0
-20 -34 0
-20 -36 0
-20 -38 0
-20 -40 0
-20 -42 0
-20 -44 0
-20 -46 0
-20 -48 0
-20 -50 0
-20 -52 0
-20 -54 0
-20 -56 0
-20 -58 0
-20 -60 0
-20 -62 0
-20 -64 0
-20 -66 0
-20 -68 0
-20 -70 0
-20 -72 0
-20 -74 0
-20 -76 0
-20 -78 0
-20 -80 0
-20 -82 0
-20 -84 0
-20 -86 0
-20 -88 0
-20 -90 0
-20 -92 0
-20 -94 0
-20 -96 0
-20 -98 0
-22 -24 0
-22 -26 0
-22 -28 0
-22 -30 0
-22 -32 0
-22 -34 0
-22 -36 0
-22 -38 0
-22 -40 0
-22 -42 0
-22 -44 0
-22 -46 0
-22 -48 0
-22 -50 0
-22 -52 0
-22 -54 0
-22 -56 0
-22 -58 0
-22 -60 0
-22 -62 0
-22 -64 0
-22 -66 0
-22 -68 0
-22 -70 0
-22 -72 0
-22 -74 0
-22 -76 0
-22 -78 0
-22 -80 0
-22 -82 0
-22 -84 0
-22 -86 0
-22 -88 0
-22 -90 0
-22 -92 0
-22 -94 0
-22 -96 0
-22 -98 0
-24 -26 0
-24 -28 0
-24 -30 0
-24 -32 0
-24 -34 0
-24 -36 0
-24 -38 0
-24 -40 0
-24 -42 0
-24 -44 0
-24 -46 0
-24 -48 0
-24 -50 0
-24 -52 0
-24 -54 0
-24 -56 0
-24 -58 0
-24 -60 0
-24 -62 0
-24 -64 0
-24 -66 0
-24 -68 0
-24 -70 0
-24 -72 0
-24 -74 0
-24 -76 0
-24 -78 0
-24 -80 0
-24 -82 0
-24 -84 0
-24 -86 0
-24 -88 0
-24 -90 0
-24 -92 0
-24 -94 0
-24 -96 0
-24 -98 0
-26 -28 0
-26 -30 0
-26 -32 0
-26 -34 0
-26 -36 0
-26 -38 0
-26 -40 0
-26 -42 0
-26 -44 0
-26 -46 0
-26 -48 0
-26 -50 0
-26 -52 0
-26 -54 0
-26 -56 0
-26 -58 0
-26 -60 0
-26 -62 0
-26 -64 0
-26 -66 0
-26 -68 0
-26 -70 0
-26 -72 0
-26 -74 0
-26 -76 0
-26 -78 0
-26 -80 0
-26 -82 0
-26 -84 0
-26 -86 0
-26 -88 0
-26 -90 0
-26 -92 0
-26 -94 0
-26 -96 0
-26 -98 0
-28 -30 0
-28 -32 0
-28 -34 0
-28 -36 0
-28 -38 0
-28 -40 0
-28 -42 0
-28 -44 0
-28 -46 0
-28 -48 0
-28 -50 0
-28 -52 0
-28 -54 0
-28 -56 0
-28 -58 0
-28 -60 0
-28 -62 0
-28 -64 0
-28 -66 0
-28 -68 0
-28 -70 0
-28 -72 0
-28 -74 0
-28 -76 0
-28 -78 0
-28 -80 0
-28 -82 0
-28 -84 0
-28 -86 0
-28 -88 0
-28 -90 0
-28 -92 0
-28 -94 0
-28 -96 0
-28 -98 0
-30 -32 0
-30 -34 0
-30 -36 0
-30 -38 0
-30 -40 0
-30 -42 0
-30 -44 0
-30 -46 0
-30 -48 0
-30 -50 0
-30 -52 0
-30 -54 0
-30 -56 0
-30 -58 0
-30 -60 0
-30 -62 0
-30 -64 0
-30 -66 0
-30 -68 0
-30 -70 0
-30 -72 0
-30 -74 0
-30 -76 0
-30 -78 0
-30 -80 0
-30 -82 0
-30 -84 0
-30 -86 0
-30 -88 0
-30 -90 0
-30 -92 0
-30 -94 0
-30 -96 0
-30 -98 0
-32 -34 0
-32 -36 0
-32 -38 0
-32 -40 0
-32 -42 0
-32 -44 0
-32 -46 0
-32 -48 0
-32 -50 0
-32 -52 0
-32 -54 0
-32 -56 0
-32 -58 0
-32 -60 0
-32 -62 0
-32 -64 0
-32 -66 0
-32 -68 0
-32 -70 0
-32 -72 0
-32 -74 0
-32 -76 0
-32 -78 0
-32 -80 0
-32 -82 0
-32 -84 0
-32 -86 0
-32 -88 0
-32 -90 0
-32 -92 0
-32 -94 0
-32 -96 0
-32 -98 0
-34 -36 0
-34 -38 0
-34 -40 0
-34 -42 0
-34 -44 0
-34 -46 0
-34 -48 0
-34 -50 0
-34 -52 0
-34 -54 0
-34 -56 0
-34 -58 0
-34 -60 0
-34 -62 0
-34 -64 0
-34 -66 0
-34 -68 0
-34 -70 0
-34 -72 0
-34 -74 0
-34 -76 0
-34 -78 0
-34 -80 0
-34 -82 0
-34 -84 0
-34 -86 0
-34 -88 0
-34 -90 0
-34 -92 0
-34 -94 0
-34 -96 0
-34 -98 0
-36 -38 0
-36 -40 0
-36 -42 0
-36 -44 0
-36 -46 0
-36 -48 0
-36 -50 0
-36 -52 0
-36 -54 0
-36 -56 0
-36 -58 0
-36 -60 0
-36 -62 0
-36 -64 0
-36 -66 0
-36 -68 0
-36 -70 0
-36 -72 0
-36 -74 0
-36 -76 0
-36 -78 0
-36 -80 0
-36 -82 0
-36 -84 0
-36 -86 0
-36 -88 0
-36 -90 0
-36 -92 0
-36 -94 0
-36 -96 0
-36 -98 0
-38 -40 0
-38 -42 0
-38 -44 0
-38 -46 0
-38 -48 0
-38 -50 0
-38 -52 0
-38 -54 0
-38 -56 0
-38 -58 0
-38 -60 0
-38 -62 0
-38 -64 0
-38 -66 0
-38 -68 0
-38 -70 0
-38 -72 0
-38 -74 0
-38 -76 0
-38 -78 0
-38 -80 0
-38 -82 0
-38 -84 0
-38 -86 0
-38 -88 0
-38 -90 0
-38 -92 0
-38 -94 0
-38 -96 0
-38 -98 0
-40 -42 0
-40 -44 0
-40 -46 0
-40 -48 0
-40 -50 0
-40 -52 0
-40 -54 0
-40 -56 0
-40 -58 0
-40 -60 0
-40 -62 0
-40 -64 0
-40 -66 0
-40 -68 0
-40 -70 0
-40 -72 0
-40 -74 0
-40 -76 0
-40 -78 0
-40 -80 0
-40 -82 0
-40 -84 0
-40 -86 0
-40 -88 0
-40 -90 0
-40 -92 0
-40 -94 0
-40 -96 0
-40 -98 0
-42 -44 0
-42 -46 0
-42 -48 0
-42 -50 0
-42 -52 0
-42 -54 0
-42 -56 0
-42 -58 0
-42 -60 0
-42 -62 0
-42 -64 0
-42 -66 0
-42 -68 0
-42 -70 0
-42 -72 0
-42 -74 0
-42 -76 0
-42 -78 0
-42 -80 0
-42 -82 0
-42 -84 0
-42 -86 0
-42 -88 0
-42 -90 0
-42 -92 0
-42 -94 0
-42 -96 0
-42 -98 0
-44 -46 0
-44 -48 0
-44 -50 0
-44 -52 0
-44 -54 0
-44 -56 0
-44 -58 0
-44 -60 0
-44 -62 0
-44 -64 0
-44 -66 0
-44 -68 0
-44 -70 0
-44 -72 0
-44 -74 0
-44 -76 0
-44 -78 0
-44 -80 0
-44 -82 0
-44 -84 0
-44 -86 0
-44 -88 0
-44 -90 0
-44 -92 0
-44 -94 0
-44 -96 0
-44 -98 0
-46 -48 0
-46 -50 0
-46 -52 0
-46 -54 0
-46 -56 0
-46 -58 0
-46 -60 0
-46 -62 0
-46 -64 0
-46 -66 0
-46 -68 0
-46 -70 0
-46 -72 0
-46 -74 0
-46 -76 0
-46 -78 0
-46 -80 0
-46 -82 0
-46 -84 0
-46 -86 0
-46 -88 0
-46 -90 0
-46 -92 0
-46 -94 0
-46 -96 0
-46 -98 0
-48 -50 0
-48 -52 0
-48 -54 0
-48 -56 0
-48 -58 0
-48 -60 0
-48 -62 0
-48 -64 0
-48 -66 0
-48 -68 0
-48 -70 0
-48 -72 0
-48 -74 0
-48 -76 0
-48 -78 0
-48 -80 0
-48 -82 0
-48 -84 0
-48 -86 0
-48 -88 0
-48 -90 0
-48 -92 0
-48 -94 0
-48 -96 0
-48 -98 0
-50 -52 0
-50 -54 0
-50 -56 0
-50 -58 0
-50 -60 0
-50 -62 0
-50 -64 0
-50 -66 0
-50 -68 0
-50 -70 0
-50 -72 0
-50 -74 0
-50 -76 0
-50 -78 0
-50 -80 0
-50 -82 0
-50 -84 0
-50 -86 0
-50 -88 0
-50 -90 0
-50 -92 0
-50 -94 0
-50 -96 0
-50 -98 0
-52 -54 0
-52 -56 0
-52 -58 0
-52 -60 0
-52 -62 0
-52 -64 0
-52 -66 0
-52 -68 0
-52 -70 0
-52 -72 0
-52 -74 0
-52 -76 0
-52 -78 0
-52 -80 0
-52 -82 0
-52 -84 0
-52 -86 0
-52 -88 0
-52 -90 0
-52 -92 0
-52 -94 0
-52 -96 0
-52 -98 0
-54 -56 0
-54 -58 0
-54 -60 0
-54 -62 0
-54 -64 0
-54 -66 0
-54 -68 0
-54 -70 0
-54 -72 0
-54 -74 0
-54 -76 0
-54 -78 0
-54 -80 0
-54 -82 0
-54 -84 0
-54 -86 0
-54 -88 0
-54 -90 0
-54 -92 0
-54 -94 0
-54 -96 0
-54 -98 0
-56 -58 0
-56 -60 0
-56 -62 0
-56 -64 0
-56 -66 0
-56 -68 0
-56 -70 0
-56 -72 0
-56 -74 0
-56 -76 0
-56 -78 0
-56 -80 0
-56 -82 0
-56 -84 0
-56 -86 0
-56 -88 0
-56 -90 0
-56 -92 0
-56 -94 0
-56 -96 0
-56 -98 0
-58 -60 0
-58 -62 0
-58 -64 0
-58 -66 0
-58 -68 0
-58 -70 0
-58 -72 0
-58 -74 0
-58 -76 0
-58 -78 0
-58 -80 0
-58 -82 0
-58 -84 0
-58 -86 0
-58 -88 0
-58 -90 0
-58 -92 0
-58 -94 0
-58 -96 0
-58 -98 0
-60 -62 0
-60 -64 0
-60 -66 0
-60 -68 0
-60 -70 0
-60 -72 0
-60 -74 0
-60 -76 0
-60 -78 0
-60 -80 0
-60 -82 0
-60 -84 0
-60 -86 0
-60 -88 0
-60 -90 0
-60 -92 0
-60 -94 0
-60 -96 0
-60 -98 0
-62 -64 0
-62 -66 0
-62 -68 0
-62 -70 0
-62 -72 0
-62 -74 0
-62 -76 0
-62 -78 0
-62 -80 0
-62 -82 0
-62 -84 0
-62 -86 0
-62 -88 0
-62 -90 0
-62 -92 0
-62 -94 0
-62 -96 0
-62 -98 0
-64 -66 0
-64 -68 0
-64 -70 0
-64 -72 0
-64 -74 0
-64 -76 0
-64 -78 0
-64 -80 0
-64 -82 0
-64 -84 0
-64 -86 0
-64 -88 0
-64 -90 0
-64 -92 0
-64 -94 0
-64 -96 0
-64 -98 0
-66 -68 0
-66 -70 0
-66 -72 0
-66 -74 0
-66 -76 0
-66 -78 0
-66 -80 0
-66 -82 0
-66 -84 0
-66 -86 0
-66 -88 0
-66 -90 0
-66 -92 0
-66 -94 0
-66 -96 0
-66 -98 0
-68 -70 0
-68 -72 0
-68 -74 0
-68 -76 0
-68 -78 0
-68 -80 0
-68 -82 0
-68 -84 0
-68 -86 0
-68 -88 0
-68 -90 0
-68 -92 0
-68 -94 0
-68 -96 0
-68 -98 0
-70 -72 0
-70 -74 0
-70 -76 0
-70 -78 0
-70 -80 0
-70 -82 0
-70 -84 0
-70 -86 0
-70 -88 0
-70 -90 0
-70 -92 0
-70 -94 0
-70 -96 0
-70 -98 0
-72 -74 0
-72 -76 0
-72 -78 0
-72 -80 0
-72 -82 0
-72 -84 0
-72 -86 0
-72 -88 0
-72 -90 0
-72 -92 0
-72 -94 0
-72 -96 0
-72 -98 0
-74 -76 0
-74 -78 0
-74 -80 0
-74 -82 0
-74 -84 0
-74 -86 0
-74 -88 0
-74 -90 0
-74 -92 0
-74 -94 0
-74 -96 0
-74 -98 0
-76 -78 0
-76 -80 0
-76 -82 0
-76 -84 0
-76 -86 0
-76 -88 0
-76 -90 0
-76 -92 0
-76 -94 0
-76 -96 0
-76 -98 0
-78 -80 0
-78 -82 0
-78 -84 0
-78 -86 0
-78 -88 0
-78 -90 0
-78 -92 0
-78 -94 0
-78 -96 0
-78 -98 0
-80 -82 0
-80 -84 0
-80 -86 0
-80 -88 0
-80 -90 0
-80 -92 0
-80 -94 0
-80 -96 0
-80 -98 0
-82 -84 0
-82 -86 0
-82 -88 0
-82 -90 0
-82 -92 0
-82 -94 0
-82 -96 0
-82 -98 0
-84 -86 0
-84 -88 0
-84 -90 0
-84 -92 0
-84 -94 0
-84 -96 0
-84 -98 0
-86 -88 0
-86 -90 0
-86 -92 0
-86 -94 0
-86 -96 0
-86 -98 0
-88 -90 0
-88 -92 0
-88 -94 0
-88 -96 0
-88 -98 0
-90 -92 0
-90 -94 0
-90 -96 0
-90 -98 0
-92 -94 0
-92 -96 0
-92 -98 0
-94 -96 0
-94 -98 0
-96 -98 0
